Nb of jobs, Nb of Machines, Time seed, Machine seed, Upper bound, Lower bound
5,10,-1,-1,-1,-1
Times
47,80,43,56,44,22,76,44,52,37
25,46,13,70,60,61,30,36,57,95
54,75,92,37,67,70,72,54,50,12
55,75,56,79,6,14,13,25,48,36
16,9,89,25,1,73,10,35,67,58
Machines
4,1,3,10,2,7,6,8,9,5
3,10,7,1,4,5,2,8,6,9
3,7,10,5,2,4,1,6,8,9
3,1,4,10,8,9,6,2,5,7
10,8,3,9,5,7,6,1,2,4
